p cnf 1363
-20 -426
-21 -429
-22 -432
-23 -435
-24 -438
-25 -441
-26 -444
-27 -447
-28 -450
-29 -453
-30 -456
-31 -459
-32 -462
-33 -465
-34 -468
-35 -471
-36 -474
-37 -477
-38 -480
-39 481
-40 482
-41 483
-42 484
-43 485
-44 486
-45 487
-46 488
-47 489
-48 490
-49 491
-50 -21
-50 -22
21 22 50
-51 -23
-51 -24
23 24 51
-52 -25
-52 -26
25 26 52
-53 -27
-53 -28
27 28 53
-54 -29
-54 -30
29 30 54
-55 -31
-55 -32
31 32 55
-56 -33
-56 -34
33 34 56
-57 -35
-57 -36
35 36 57
-58 -37
-58 -38
37 38 58
-59 -39
-59 -40
39 40 59
-60 -41
-60 -42
41 42 60
-61 -43
-61 -44
43 44 61
-62 -45
-62 -46
45 46 62
-63 -47
-63 -48
47 48 63
-64 50
-64 51
-50 -51 64
-65 52
-65 53
-52 -53 65
-66 54
-66 55
-54 -55 66
-67 56
-67 57
-56 -57 67
-68 58
-68 59
-58 -59 68
-69 60
-69 61
-60 -61 69
-70 62
-70 63
-62 -63 70
-71 64
-71 65
-64 -65 71
-72 66
-72 67
-66 -67 72
-73 68
-73 69
-68 -69 73
-74 -49
-74 70
49 -70 74
-75 71
-75 72
-71 -72 75
-76 73
-76 74
-73 -74 76
-77 75
-77 76
-75 -76 77
-78 -20
-78 21
20 -21 78
-79 20
-79 -21
-20 21 79
-80 -78
-80 -79
78 79 80
-81 20
-81 21
-20 -21 81
-82 -20
-82 -80
20 80 82
-83 20
-83 80
-20 -80 83
-84 -82
-84 -83
82 83 84
-85 20
-85 -80
-20 80 85
-86 -81
-86 -85
81 85 86
-87 -21
-87 22
21 -22 87
-88 21
-88 -22
-21 22 88
-89 -87
-89 -88
87 88 89
-90 21
-90 22
-21 -22 90
-91 86
-91 -89
-86 89 91
-92 -86
-92 89
86 -89 92
-93 -91
-93 -92
91 92 93
-94 -86
-94 -89
86 89 94
-95 -90
-95 -94
90 94 95
-96 -22
-96 23
22 -23 96
-97 22
-97 -23
-22 23 97
-98 -96
-98 -97
96 97 98
-99 22
-99 23
-22 -23 99
-100 95
-100 -98
-95 98 100
-101 -95
-101 98
95 -98 101
-102 -100
-102 -101
100 101 102
-103 -95
-103 -98
95 98 103
-104 -99
-104 -103
99 103 104
-105 -23
-105 24
23 -24 105
-106 23
-106 -24
-23 24 106
-107 -105
-107 -106
105 106 107
-108 23
-108 24
-23 -24 108
-109 104
-109 -107
-104 107 109
-110 -104
-110 107
104 -107 110
-111 -109
-111 -110
109 110 111
-112 -104
-112 -107
104 107 112
-113 -108
-113 -112
108 112 113
-114 -24
-114 25
24 -25 114
-115 24
-115 -25
-24 25 115
-116 -114
-116 -115
114 115 116
-117 24
-117 25
-24 -25 117
-118 113
-118 -116
-113 116 118
-119 -113
-119 116
113 -116 119
-120 -118
-120 -119
118 119 120
-121 -113
-121 -116
113 116 121
-122 -117
-122 -121
117 121 122
-123 -25
-123 26
25 -26 123
-124 25
-124 -26
-25 26 124
-125 -123
-125 -124
123 124 125
-126 25
-126 26
-25 -26 126
-127 122
-127 -125
-122 125 127
-128 -122
-128 125
122 -125 128
-129 -127
-129 -128
127 128 129
-130 -122
-130 -125
122 125 130
-131 -126
-131 -130
126 130 131
-132 -26
-132 27
26 -27 132
-133 26
-133 -27
-26 27 133
-134 -132
-134 -133
132 133 134
-135 26
-135 27
-26 -27 135
-136 131
-136 -134
-131 134 136
-137 -131
-137 134
131 -134 137
-138 -136
-138 -137
136 137 138
-139 -131
-139 -134
131 134 139
-140 -135
-140 -139
135 139 140
-141 -27
-141 28
27 -28 141
-142 27
-142 -28
-27 28 142
-143 -141
-143 -142
141 142 143
-144 27
-144 28
-27 -28 144
-145 140
-145 -143
-140 143 145
-146 -140
-146 143
140 -143 146
-147 -145
-147 -146
145 146 147
-148 -140
-148 -143
140 143 148
-149 -144
-149 -148
144 148 149
-150 -28
-150 29
28 -29 150
-151 28
-151 -29
-28 29 151
-152 -150
-152 -151
150 151 152
-153 28
-153 29
-28 -29 153
-154 149
-154 -152
-149 152 154
-155 -149
-155 152
149 -152 155
-156 -154
-156 -155
154 155 156
-157 -149
-157 -152
149 152 157
-158 -153
-158 -157
153 157 158
-159 -29
-159 30
29 -30 159
-160 29
-160 -30
-29 30 160
-161 -159
-161 -160
159 160 161
-162 29
-162 30
-29 -30 162
-163 158
-163 -161
-158 161 163
-164 -158
-164 161
158 -161 164
-165 -163
-165 -164
163 164 165
-166 -158
-166 -161
158 161 166
-167 -162
-167 -166
162 166 167
-168 -30
-168 31
30 -31 168
-169 30
-169 -31
-30 31 169
-170 -168
-170 -169
168 169 170
-171 30
-171 31
-30 -31 171
-172 167
-172 -170
-167 170 172
-173 -167
-173 170
167 -170 173
-174 -172
-174 -173
172 173 174
-175 -167
-175 -170
167 170 175
-176 -171
-176 -175
171 175 176
-177 -31
-177 32
31 -32 177
-178 31
-178 -32
-31 32 178
-179 -177
-179 -178
177 178 179
-180 31
-180 32
-31 -32 180
-181 176
-181 -179
-176 179 181
-182 -176
-182 179
176 -179 182
-183 -181
-183 -182
181 182 183
-184 -176
-184 -179
176 179 184
-185 -180
-185 -184
180 184 185
-186 -32
-186 33
32 -33 186
-187 32
-187 -33
-32 33 187
-188 -186
-188 -187
186 187 188
-189 32
-189 33
-32 -33 189
-190 185
-190 -188
-185 188 190
-191 -185
-191 188
185 -188 191
-192 -190
-192 -191
190 191 192
-193 -185
-193 -188
185 188 193
-194 -189
-194 -193
189 193 194
-195 -33
-195 34
33 -34 195
-196 33
-196 -34
-33 34 196
-197 -195
-197 -196
195 196 197
-198 33
-198 34
-33 -34 198
-199 194
-199 -197
-194 197 199
-200 -194
-200 197
194 -197 200
-201 -199
-201 -200
199 200 201
-202 -194
-202 -197
194 197 202
-203 -198
-203 -202
198 202 203
-204 -34
-204 35
34 -35 204
-205 34
-205 -35
-34 35 205
-206 -204
-206 -205
204 205 206
-207 34
-207 35
-34 -35 207
-208 203
-208 -206
-203 206 208
-209 -203
-209 206
203 -206 209
-210 -208
-210 -209
208 209 210
-211 -203
-211 -206
203 206 211
-212 -207
-212 -211
207 211 212
-213 -35
-213 36
35 -36 213
-214 35
-214 -36
-35 36 214
-215 -213
-215 -214
213 214 215
-216 35
-216 36
-35 -36 216
-217 212
-217 -215
-212 215 217
-218 -212
-218 215
212 -215 218
-219 -217
-219 -218
217 218 219
-220 -212
-220 -215
212 215 220
-221 -216
-221 -220
216 220 221
-222 -36
-222 37
36 -37 222
-223 36
-223 -37
-36 37 223
-224 -222
-224 -223
222 223 224
-225 36
-225 37
-36 -37 225
-226 221
-226 -224
-221 224 226
-227 -221
-227 224
221 -224 227
-228 -226
-228 -227
226 227 228
-229 -221
-229 -224
221 224 229
-230 -225
-230 -229
225 229 230
-231 -37
-231 38
37 -38 231
-232 37
-232 -38
-37 38 232
-233 -231
-233 -232
231 232 233
-234 37
-234 38
-37 -38 234
-235 230
-235 -233
-230 233 235
-236 -230
-236 233
230 -233 236
-237 -235
-237 -236
235 236 237
-238 -230
-238 -233
230 233 238
-239 -234
-239 -238
234 238 239
-240 -38
-240 39
38 -39 240
-241 38
-241 -39
-38 39 241
-242 -240
-242 -241
240 241 242
-243 38
-243 39
-38 -39 243
-244 239
-244 -242
-239 242 244
-245 -239
-245 242
239 -242 245
-246 -244
-246 -245
244 245 246
-247 -239
-247 -242
239 242 247
-248 -243
-248 -247
243 247 248
-249 -39
-249 40
39 -40 249
-250 39
-250 -40
-39 40 250
-251 -249
-251 -250
249 250 251
-252 39
-252 40
-39 -40 252
-253 248
-253 -251
-248 251 253
-254 -248
-254 251
248 -251 254
-255 -253
-255 -254
253 254 255
-256 -248
-256 -251
248 251 256
-257 -252
-257 -256
252 256 257
-258 -40
-258 41
40 -41 258
-259 40
-259 -41
-40 41 259
-260 -258
-260 -259
258 259 260
-261 40
-261 41
-40 -41 261
-262 257
-262 -260
-257 260 262
-263 -257
-263 260
257 -260 263
-264 -262
-264 -263
262 263 264
-265 -257
-265 -260
257 260 265
-266 -261
-266 -265
261 265 266
-267 -41
-267 42
41 -42 267
-268 41
-268 -42
-41 42 268
-269 -267
-269 -268
267 268 269
-270 41
-270 42
-41 -42 270
-271 266
-271 -269
-266 269 271
-272 -266
-272 269
266 -269 272
-273 -271
-273 -272
271 272 273
-274 -266
-274 -269
266 269 274
-275 -270
-275 -274
270 274 275
-276 -42
-276 43
42 -43 276
-277 42
-277 -43
-42 43 277
-278 -276
-278 -277
276 277 278
-279 42
-279 43
-42 -43 279
-280 275
-280 -278
-275 278 280
-281 -275
-281 278
275 -278 281
-282 -280
-282 -281
280 281 282
-283 -275
-283 -278
275 278 283
-284 -279
-284 -283
279 283 284
-285 -43
-285 44
43 -44 285
-286 43
-286 -44
-43 44 286
-287 -285
-287 -286
285 286 287
-288 43
-288 44
-43 -44 288
-289 284
-289 -287
-284 287 289
-290 -284
-290 287
284 -287 290
-291 -289
-291 -290
289 290 291
-292 -284
-292 -287
284 287 292
-293 -288
-293 -292
288 292 293
-294 -44
-294 45
44 -45 294
-295 44
-295 -45
-44 45 295
-296 -294
-296 -295
294 295 296
-297 44
-297 45
-44 -45 297
-298 293
-298 -296
-293 296 298
-299 -293
-299 296
293 -296 299
-300 -298
-300 -299
298 299 300
-301 -293
-301 -296
293 296 301
-302 -297
-302 -301
297 301 302
-303 -45
-303 46
45 -46 303
-304 45
-304 -46
-45 46 304
-305 -303
-305 -304
303 304 305
-306 45
-306 46
-45 -46 306
-307 302
-307 -305
-302 305 307
-308 -302
-308 305
302 -305 308
-309 -307
-309 -308
307 308 309
-310 -302
-310 -305
302 305 310
-311 -306
-311 -310
306 310 311
-312 -46
-312 47
46 -47 312
-313 46
-313 -47
-46 47 313
-314 -312
-314 -313
312 313 314
-315 46
-315 47
-46 -47 315
-316 311
-316 -314
-311 314 316
-317 -311
-317 314
311 -314 317
-318 -316
-318 -317
316 317 318
-319 -311
-319 -314
311 314 319
-320 -315
-320 -319
315 319 320
-321 -47
-321 48
47 -48 321
-322 47
-322 -48
-47 48 322
-323 -321
-323 -322
321 322 323
-324 47
-324 48
-47 -48 324
-325 320
-325 -323
-320 323 325
-326 -320
-326 323
320 -323 326
-327 -325
-327 -326
325 326 327
-328 -320
-328 -323
320 323 328
-329 -324
-329 -328
324 328 329
-330 -48
-330 49
48 -49 330
-331 48
-331 -49
-48 49 331
-332 -330
-332 -331
330 331 332
-333 48
-333 49
-48 -49 333
-334 329
-334 -332
-329 332 334
-335 -329
-335 332
329 -332 335
-336 -334
-336 -335
334 335 336
-337 -329
-337 -332
329 332 337
-338 -333
-338 -337
333 337 338
-339 20
-339 -84
-20 84 339
-340 -20
-340 22
20 -22 340
-341 -339
-341 -340
339 340 341
-342 20
-342 -93
-20 93 342
-343 -20
-343 23
20 -23 343
-344 -342
-344 -343
342 343 344
-345 20
-345 -102
-20 102 345
-346 -20
-346 24
20 -24 346
-347 -345
-347 -346
345 346 347
-348 20
-348 -111
-20 111 348
-349 -20
-349 25
20 -25 349
-350 -348
-350 -349
348 349 350
-351 20
-351 -120
-20 120 351
-352 -20
-352 26
20 -26 352
-353 -351
-353 -352
351 352 353
-354 20
-354 -129
-20 129 354
-355 -20
-355 27
20 -27 355
-356 -354
-356 -355
354 355 356
-357 20
-357 -138
-20 138 357
-358 -20
-358 28
20 -28 358
-359 -357
-359 -358
357 358 359
-360 20
-360 -147
-20 147 360
-361 -20
-361 29
20 -29 361
-362 -360
-362 -361
360 361 362
-363 20
-363 -156
-20 156 363
-364 -20
-364 30
20 -30 364
-365 -363
-365 -364
363 364 365
-366 20
-366 -165
-20 165 366
-367 -20
-367 31
20 -31 367
-368 -366
-368 -367
366 367 368
-369 20
-369 -174
-20 174 369
-370 -20
-370 32
20 -32 370
-371 -369
-371 -370
369 370 371
-372 20
-372 -183
-20 183 372
-373 -20
-373 33
20 -33 373
-374 -372
-374 -373
372 373 374
-375 20
-375 -192
-20 192 375
-376 -20
-376 34
20 -34 376
-377 -375
-377 -376
375 376 377
-378 20
-378 -201
-20 201 378
-379 -20
-379 35
20 -35 379
-380 -378
-380 -379
378 379 380
-381 20
-381 -210
-20 210 381
-382 -20
-382 36
20 -36 382
-383 -381
-383 -382
381 382 383
-384 20
-384 -219
-20 219 384
-385 -20
-385 37
20 -37 385
-386 -384
-386 -385
384 385 386
-387 20
-387 -228
-20 228 387
-388 -20
-388 38
20 -38 388
-389 -387
-389 -388
387 388 389
-390 20
-390 -237
-20 237 390
-391 -20
-391 39
20 -39 391
-392 -390
-392 -391
390 391 392
-393 20
-393 -246
-20 246 393
-394 -20
-394 40
20 -40 394
-395 -393
-395 -394
393 394 395
-396 20
-396 -255
-20 255 396
-397 -20
-397 41
20 -41 397
-398 -396
-398 -397
396 397 398
-399 20
-399 -264
-20 264 399
-400 -20
-400 42
20 -42 400
-401 -399
-401 -400
399 400 401
-402 20
-402 -273
-20 273 402
-403 -20
-403 43
20 -43 403
-404 -402
-404 -403
402 403 404
-405 20
-405 -282
-20 282 405
-406 -20
-406 44
20 -44 406
-407 -405
-407 -406
405 406 407
-408 20
-408 -291
-20 291 408
-409 -20
-409 45
20 -45 409
-410 -408
-410 -409
408 409 410
-411 20
-411 -300
-20 300 411
-412 -20
-412 46
20 -46 412
-413 -411
-413 -412
411 412 413
-414 20
-414 -309
-20 309 414
-415 -20
-415 47
20 -47 415
-416 -414
-416 -415
414 415 416
-417 20
-417 -318
-20 318 417
-418 -20
-418 48
20 -48 418
-419 -417
-419 -418
417 418 419
-420 20
-420 -327
-20 327 420
-421 -20
-421 49
20 -49 421
-422 -420
-422 -421
420 421 422
-423 20
-423 -336
-20 336 423
-424 1
-424 77
-1 -77 424
-425 -77
-425 78
77 -78 425
-426 -424
-426 -425
424 425 426
-427 2
-427 77
-2 -77 427
-428 -77
-428 -341
77 341 428
-429 -427
-429 -428
427 428 429
-430 3
-430 77
-3 -77 430
-431 -77
-431 -344
77 344 431
-432 -430
-432 -431
430 431 432
-433 4
-433 77
-4 -77 433
-434 -77
-434 -347
77 347 434
-435 -433
-435 -434
433 434 435
-436 5
-436 77
-5 -77 436
-437 -77
-437 -350
77 350 437
-438 -436
-438 -437
436 437 438
-439 6
-439 77
-6 -77 439
-440 -77
-440 -353
77 353 440
-441 -439
-441 -440
439 440 441
-442 7
-442 77
-7 -77 442
-443 -77
-443 -356
77 356 443
-444 -442
-444 -443
442 443 444
-445 8
-445 77
-8 -77 445
-446 -77
-446 -359
77 359 446
-447 -445
-447 -446
445 446 447
-448 9
-448 77
-9 -77 448
-449 -77
-449 -362
77 362 449
-450 -448
-450 -449
448 449 450
-451 10
-451 77
-10 -77 451
-452 -77
-452 -365
77 365 452
-453 -451
-453 -452
451 452 453
-454 11
-454 77
-11 -77 454
-455 -77
-455 -368
77 368 455
-456 -454
-456 -455
454 455 456
-457 12
-457 77
-12 -77 457
-458 -77
-458 -371
77 371 458
-459 -457
-459 -458
457 458 459
-460 13
-460 77
-13 -77 460
-461 -77
-461 -374
77 374 461
-462 -460
-462 -461
460 461 462
-463 14
-463 77
-14 -77 463
-464 -77
-464 -377
77 377 464
-465 -463
-465 -464
463 464 465
-466 15
-466 77
-15 -77 466
-467 -77
-467 -380
77 380 467
-468 -466
-468 -467
466 467 468
-469 16
-469 77
-16 -77 469
-470 -77
-470 -383
77 383 470
-471 -469
-471 -470
469 470 471
-472 17
-472 77
-17 -77 472
-473 -77
-473 -386
77 386 473
-474 -472
-474 -473
472 473 474
-475 18
-475 77
-18 -77 475
-476 -77
-476 -389
77 389 476
-477 -475
-477 -476
475 476 477
-478 19
-478 77
-19 -77 478
-479 -77
-479 -392
77 392 479
-480 -478
-480 -479
478 479 480
-481 -77
-481 -395
77 395 481
-482 -77
-482 -398
77 398 482
-483 -77
-483 -401
77 401 483
-484 -77
-484 -404
77 404 484
-485 -77
-485 -407
77 407 485
-486 -77
-486 -410
77 410 486
-487 -77
-487 -413
77 413 487
-488 -77
-488 -416
77 416 488
-489 -77
-489 -419
77 419 489
-490 -77
-490 -422
77 422 490
-491 -77
-491 423
77 -423 491
-492 -49
-492 338
49 -338 492
-493 20
-493 -492
-20 492 493
493
